p edge 99 147
e 1 8
e 1 61
e 1 85
e 1 24
e 2 65
e 2 87
e 2 46
e 3 43
e 3 61
e 3 78
e 4 5
e 4 14
e 4 55
e 4 38
e 4 83
e 5 9
e 6 58
e 6 61
e 6 93
e 6 99
e 7 75
e 8 67
e 8 78
e 8 96
e 9 10
e 9 97
e 10 49
e 10 11
e 10 52
e 11 75
e 11 79
e 12 43
e 12 83
e 13 79
e 13 91
e 14 56
e 14 64
e 15 24
e 16 21
e 16 19
e 17 20
e 17 22
e 17 21
e 17 59
e 18 50
e 18 28
e 18 67
e 18 72
e 19 63
e 19 79
e 20 64
e 21 57
e 21 85
e 22 27
e 22 60
e 22 94
e 23 51
e 23 65
e 24 70
e 24 65
e 24 86
e 25 29
e 25 39
e 25 63
e 25 99
e 26 77
e 26 88
e 26 56
e 26 98
e 26 99
e 27 31
e 27 28
e 27 38
e 27 77
e 27 55
e 30 40
e 30 68
e 31 95
e 32 45
e 32 72
e 33 60
e 33 86
e 33 99
e 34 70
e 34 80
e 35 79
e 35 85
e 35 88
e 36 41
e 36 42
e 36 43
e 36 46
e 36 62
e 36 75
e 36 80
e 37 81
e 37 90
e 38 44
e 39 46
e 40 54
e 40 59
e 40 92
e 41 58
e 43 81
e 43 61
e 44 58
e 45 62
e 45 82
e 45 84
e 46 75
e 46 85
e 46 87
e 47 52
e 47 48
e 48 67
e 49 58
e 49 74
e 52 74
e 52 85
e 52 89
e 53 65
e 57 76
e 57 97
e 58 59
e 58 90
e 59 66
e 60 85
e 61 99
e 62 79
e 63 79
e 64 89
e 65 73
e 66 75
e 68 69
e 69 77
e 69 96
e 70 77
e 71 94
e 73 75
e 74 92
e 75 84
e 77 85
e 77 93
e 81 85
e 81 97
e 90 93
e 93 98
l 12
t 51 71
